(set-logic ALL)
(declare-fun var0 () String)
(assert (str.in_re var0 (re.++ (re.+ (re.* (str.to_re "0"))) (re.++ (re.union (re.union (str.to_re "11") (str.to_re "2")) (re.union (str.to_re "3") (str.to_re "444"))) (re.++ (re.union (re.+ (str.to_re "5")) (re.+ (str.to_re "6"))) (re.++ (re.union (re.+ (str.to_re "77")) (re.+ (str.to_re "8"))) (re.++ (re.* (re.+ (str.to_re "999"))) (re.++ (re.* (re.* (str.to_re "a"))) (re.++ (re.+ (re.* (str.to_re "bbb"))) (re.++ (re.* (re.+ (str.to_re "cc"))) (re.++ (re.* (re.* (str.to_re "ddd"))) (re.++ (re.* (re.union (str.to_re "eee") (str.to_re "f"))) (re.++ (re.* (re.* (str.to_re "g"))) (re.++ (re.* (re.union (str.to_re "hh") (str.to_re "ii"))) (re.++ (re.union (re.* (str.to_re "jjj")) (re.* (str.to_re "kk"))) (re.++ (re.* (re.+ (str.to_re "lll"))) (re.++ (re.+ (re.union (str.to_re "m") (str.to_re "nnn"))) (re.++ (re.* (re.union (str.to_re "o") (str.to_re "ppp"))) (re.++ (re.union (re.+ (str.to_re "q")) (re.+ (str.to_re "rrr"))) (re.++ (re.* (re.* (str.to_re "sss"))) (re.++ (re.+ (re.* (str.to_re "t"))) (re.++ (re.+ (re.* (str.to_re "u"))) (re.++ (re.+ (re.+ (str.to_re "vvv"))) (re.++ (re.* (re.* (str.to_re "ww"))) (re.* (re.union (str.to_re "xx") (str.to_re "yyy")))))))))))))))))))))))))))
(check-sat)